benchmarks_CP/INST_49x49/50/inst49x49_50_1.dzn
S=7;
start=[|
-1,	-1,	-1,	-1,	32,	-1,	3,	-1,	41,	-1,	19,	48,	-1,	-1,	23,	18,	31,	-1,	-1,	-1,	-1,	-1,	-1,	-1,	-1,	47,	-1,	49,	-1,	-1,	-1,	-1,	35,	-1,	-1,	36,	-1,	26,	-1,	2,	-1,	46,	33,	15,	-1,	34,	30,	38,	-1|
13,	27,	-1,	16,	-1,	5,	43,	-1,	49,	-1,	-1,	10,	8,	-1,	37,	24,	-1,	1,	26,	-1,	-1,	-1,	41,	30,	17,	-1,	12,	-1,	15,	31,	19,	-1,	25,	34,	40,	-1,	42,	33,	35,	-1,	-1,	48,	-1,	-1,	-1,	-1,	-1,	29,	21|
-1,	26,	-1,	8,	-1,	-1,	14,	-1,	21,	36,	23,	-1,	-1,	-1,	33,	29,	-1,	41,	19,	3,	7,	-1,	-1,	24,	-1,	-1,	31,	32,	-1,	20,	-1,	-1,	47,	-1,	-1,	45,	16,	-1,	44,	-1,	-1,	-1,	39,	18,	-1,	-1,	-1,	46,	25|
-1,	-1,	-1,	-1,	18,	-1,	-1,	-1,	13,	-1,	-1,	-1,	25,	-1,	-1,	-1,	-1,	-1,	45,	-1,	-1,	-1,	-1,	-1,	-1,	-1,	-1,	-1,	22,	-1,	-1,	-1,	38,	-1,	37,	15,	-1,	24,	3,	-1,	21,	28,	9,	49,	-1,	23,	-1,	-1,	-1|
36,	-1,	33,	-1,	2,	-1,	48,	37,	-1,	-1,	24,	-1,	-1,	-1,	-1,	-1,	-1,	-1,	-1,	28,	-1,	26,	4,	34,	27,	-1,	20,	-1,	43,	49,	-1,	46,	18,	8,	45,	-1,	25,	-1,	13,	-1,	29,	9,	-1,	10,	16,	5,	-1,	-1,	-1|
-1,	-1,	20,	47,	-1,	24,	9,	30,	16,	14,	45,	-1,	1,	-1,	-1,	-1,	-1,	46,	34,	-1,	-1,	40,	-1,	-1,	-1,	-1,	38,	-1,	-1,	33,	32,	21,	-1,	-1,	-1,	12,	17,	-1,	37,	8,	-1,	-1,	-1,	48,	-1,	2,	7,	-1,	3|
41,	42,	23,	-1,	-1,	1,	45,	33,	18,	-1,	-1,	29,	-1,	-1,	12,	-1,	-1,	-1,	2,	21,	-1,	-1,	-1,	-1,	-1,	-1,	-1,	-1,	5,	-1,	24,	6,	-1,	-1,	-1,	-1,	38,	49,	39,	32,	11,	14,	37,	28,	35,	20,	31,	-1,	22|
-1,	-1,	42,	-1,	-1,	-1,	23,	36,	28,	-1,	-1,	-1,	-1,	-1,	-1,	-1,	13,	-1,	9,	6,	-1,	-1,	-1,	48,	-1,	40,	7,	-1,	49,	3,	18,	-1,	-1,	19,	10,	20,	-1,	12,	-1,	-1,	37,	-1,	31,	21,	-1,	-1,	-1,	15,	27|
6,	-1,	-1,	3,	-1,	46,	16,	-1,	9,	-1,	26,	-1,	24,	37,	-1,	-1,	-1,	25,	12,	49,	35,	-1,	-1,	10,	5,	-1,	21,	-1,	41,	34,	-1,	47,	30,	40,	14,	-1,	44,	13,	36,	-1,	-1,	-1,	-1,	-1,	-1,	-1,	-1,	39,	-1|
49,	-1,	-1,	-1,	-1,	-1,	-1,	43,	6,	-1,	47,	8,	30,	-1,	-1,	28,	-1,	36,	20,	23,	-1,	33,	-1,	13,	38,	-1,	18,	41,	26,	-1,	-1,	4,	2,	-1,	-1,	42,	-1,	-1,	-1,	17,	-1,	22,	-1,	-1,	-1,	-1,	-1,	-1,	29|
1,	17,	-1,	33,	-1,	-1,	38,	-1,	-1,	13,	7,	-1,	44,	-1,	42,	-1,	-1,	31,	41,	-1,	27,	11,	24,	14,	-1,	-1,	-1,	6,	21,	22,	-1,	20,	15,	-1,	5,	-1,	19,	47,	18,	3,	8,	10,	-1,	-1,	-1,	-1,	-1,	-1,	23|
-1,	21,	37,	28,	-1,	-1,	-1,	-1,	-1,	18,	22,	31,	-1,	-1,	44,	17,	3,	-1,	-1,	-1,	40,	45,	-1,	4,	46,	-1,	26,	-1,	-1,	13,	9,	35,	-1,	-1,	-1,	-1,	-1,	-1,	-1,	-1,	-1,	41,	2,	12,	-1,	42,	24,	-1,	-1|
-1,	-1,	27,	13,	-1,	-1,	36,	10,	-1,	-1,	-1,	41,	45,	48,	19,	-1,	22,	7,	46,	-1,	-1,	17,	8,	-1,	-1,	23,	2,	30,	-1,	-1,	37,	29,	39,	-1,	32,	-1,	28,	35,	-1,	9,	24,	5,	-1,	20,	-1,	25,	-1,	18,	14|
18,	-1,	-1,	40,	-1,	26,	34,	-1,	19,	5,	-1,	-1,	-1,	-1,	-1,	-1,	-1,	10,	4,	47,	-1,	12,	-1,	9,	-1,	28,	-1,	35,	-1,	-1,	-1,	24,	42,	27,	-1,	-1,	-1,	-1,	-1,	-1,	-1,	-1,	-1,	-1,	41,	1,	-1,	-1,	-1|
-1,	-1,	-1,	2,	3,	22,	13,	44,	-1,	31,	-1,	-1,	-1,	12,	28,	7,	10,	27,	-1,	-1,	-1,	4,	17,	11,	-1,	20,	-1,	38,	40,	32,	-1,	-1,	-1,	-1,	43,	-1,	-1,	-1,	-1,	-1,	-1,	21,	-1,	-1,	-1,	37,	-1,	-1,	36|
-1,	-1,	-1,	43,	21,	41,	-1,	-1,	22,	-1,	-1,	-1,	26,	20,	45,	30,	46,	-1,	24,	-1,	17,	-1,	12,	8,	-1,	-1,	36,	28,	-1,	-1,	2,	-1,	-1,	14,	48,	-1,	10,	3,	-1,	-1,	13,	-1,	-1,	-1,	-1,	31,	-1,	-1,	11|
45,	-1,	10,	-1,	-1,	-1,	-1,	18,	36,	43,	37,	-1,	-1,	-1,	-1,	47,	32,	-1,	49,	48,	1,	9,	16,	6,	-1,	46,	-1,	-1,	38,	4,	42,	-1,	-1,	15,	21,	25,	12,	-1,	-1,	11,	19,	-1,	20,	27,	14,	30,	-1,	33,	-1|
16,	24,	8,	1,	26,	6,	-1,	-1,	46,	48,	-1,	5,	38,	35,	-1,	-1,	-1,	3,	-1,	4,	-1,	-1,	-1,	-1,	-1,	41,	-1,	-1,	-1,	-1,	30,	18,	-1,	-1,	-1,	-1,	-1,	20,	22,	-1,	-1,	-1,	-1,	29,	49,	10,	15,	-1,	9|
19,	20,	-1,	-1,	23,	-1,	-1,	-1,	33,	7,	-1,	-1,	6,	11,	-1,	-1,	38,	42,	35,	-1,	-1,	-1,	-1,	5,	-1,	-1,	29,	-1,	31,	-1,	-1,	-1,	-1,	-1,	41,	27,	-1,	15,	-1,	36,	-1,	-1,	45,	26,	-1,	32,	44,	3,	-1|
-1,	12,	30,	27,	-1,	36,	-1,	-1,	-1,	34,	-1,	-1,	21,	24,	8,	41,	9,	5,	-1,	31,	22,	19,	-1,	23,	-1,	26,	-1,	-1,	37,	-1,	-1,	-1,	-1,	-1,	-1,	29,	-1,	32,	4,	43,	39,	7,	-1,	-1,	-1,	18,	-1,	-1,	-1|
-1,	34,	-1,	5,	33,	-1,	-1,	39,	-1,	-1,	-1,	27,	42,	23,	29,	-1,	40,	-1,	-1,	20,	15,	-1,	-1,	-1,	-1,	-1,	30,	37,	36,	9,	6,	28,	17,	12,	46,	-1,	14,	16,	31,	-1,	2,	45,	-1,	4,	-1,	-1,	-1,	-1,	1|
-1,	35,	16,	18,	34,	13,	12,	-1,	-1,	20,	43,	-1,	-1,	41,	-1,	-1,	23,	-1,	31,	5,	-1,	-1,	38,	1,	26,	19,	-1,	39,	17,	-1,	29,	-1,	-1,	-1,	-1,	-1,	-1,	-1,	-1,	-1,	42,	-1,	40,	8,	-1,	-1,	27,	44,	48|
38,	1,	-1,	-1,	-1,	-1,	-1,	-1,	-1,	-1,	12,	-1,	-1,	44,	-1,	-1,	14,	29,	42,	46,	-1,	-1,	30,	-1,	-1,	-1,	-1,	18,	35,	-1,	-1,	11,	-1,	-1,	16,	21,	-1,	27,	8,	13,	34,	6,	17,	-1,	39,	-1,	-1,	-1,	-1|
27,	28,	-1,	-1,	-1,	-1,	-1,	7,	5,	32,	-1,	-1,	39,	47,	-1,	8,	43,	9,	-1,	35,	48,	24,	13,	33,	23,	37,	-1,	-1,	-1,	2,	-1,	45,	-1,	21,	-1,	-1,	46,	38,	-1,	44,	10,	36,	18,	3,	19,	6,	34,	31,	49|
-1,	45,	-1,	-1,	-1,	9,	15,	42,	35,	3,	-1,	-1,	17,	19,	10,	1,	-1,	32,	11,	18,	-1,	8,	40,	-1,	-1,	-1,	14,	16,	-1,	38,	23,	-1,	36,	5,	-1,	37,	-1,	-1,	-1,	-1,	-1,	-1,	13,	47,	22,	4,	2,	-1,	33|
-1,	22,	-1,	32,	6,	48,	-1,	14,	-1,	-1,	-1,	16,	23,	-1,	-1,	3,	30,	12,	17,	15,	-1,	-1,	-1,	-1,	21,	45,	-1,	-1,	-1,	-1,	27,	40,	7,	37,	39,	-1,	-1,	5,	43,	-1,	1,	-1,	-1,	36,	-1,	29,	-1,	9,	38|
29,	36,	-1,	-1,	-1,	37,	21,	-1,	27,	-1,	-1,	-1,	48,	18,	-1,	-1,	34,	39,	38,	25,	-1,	2,	-1,	-1,	20,	-1,	-1,	44,	-1,	-1,	31,	14,	-1,	6,	-1,	-1,	26,	-1,	-1,	15,	-1,	19,	-1,	7,	-1,	11,	-1,	30,	5|
-1,	-1,	4,	-1,	-1,	-1,	-1,	-1,	25,	26,	11,	37,	-1,	-1,	7,	44,	36,	21,	13,	-1,	-1,	-1,	-1,	27,	-1,	32,	-1,	5,	-1,	48,	34,	-1,	20,	-1,	-1,	33,	-1,	23,	41,	-1,	47,	-1,	42,	-1,	1,	16,	-1,	14,	-1|
-1,	-1,	-1,	-1,	-1,	42,	6,	-1,	20,	-1,	-1,	44,	-1,	38,	-1,	40,	-1,	23,	29,	-1,	13,	-1,	5,	-1,	34,	-1,	-1,	-1,	16,	-1,	21,	10,	22,	-1,	35,	46,	9,	-1,	12,	-1,	-1,	-1,	-1,	-1,	33,	-1,	-1,	11,	8|
-1,	-1,	40,	38,	14,	23,	-1,	25,	3,	19,	-1,	-1,	-1,	-1,	-1,	12,	28,	-1,	1,	-1,	-1,	-1,	27,	-1,	35,	-1,	15,	-1,	9,	36,	-1,	-1,	37,	11,	-1,	18,	21,	29,	42,	16,	-1,	-1,	-1,	13,	6,	24,	-1,	48,	31|
-1,	18,	12,	36,	-1,	15,	-1,	24,	-1,	-1,	-1,	43,	-1,	-1,	-1,	-1,	25,	48,	8,	27,	33,	-1,	22,	29,	41,	11,	40,	26,	34,	28,	45,	31,	1,	-1,	-1,	38,	23,	10,	-1,	6,	-1,	32,	-1,	19,	-1,	21,	-1,	49,	44|
-1,	49,	-1,	-1,	-1,	32,	-1,	22,	48,	-1,	-1,	-1,	9,	-1,	36,	-1,	19,	37,	-1,	-1,	42,	-1,	7,	-1,	-1,	3,	-1,	20,	-1,	17,	26,	23,	14,	-1,	-1,	5,	-1,	2,	11,	34,	-1,	-1,	-1,	-1,	18,	-1,	1,	47,	30|
-1,	44,	-1,	-1,	-1,	-1,	-1,	-1,	45,	23,	1,	-1,	-1,	-1,	-1,	5,	-1,	-1,	-1,	10,	43,	14,	-1,	-1,	28,	17,	-1,	-1,	-1,	8,	-1,	3,	12,	-1,	19,	26,	37,	30,	-1,	-1,	-1,	27,	35,	42,	-1,	9,	29,	7,	4|
-1,	-1,	-1,	48,	41,	20,	1,	-1,	-1,	-1,	18,	-1,	-1,	-1,	-1,	-1,	4,	-1,	-1,	32,	-1,	42,	43,	-1,	-1,	-1,	-1,	-1,	-1,	6,	33,	38,	27,	49,	-1,	3,	-1,	28,	-1,	-1,	-1,	-1,	23,	-1,	-1,	40,	26,	45,	46|
-1,	7,	34,	29,	16,	27,	8,	26,	-1,	47,	-1,	-1,	-1,	-1,	35,	-1,	-1,	-1,	30,	38,	3,	23,	-1,	19,	18,	-1,	9,	33,	48,	-1,	-1,	15,	-1,	43,	42,	39,	45,	-1,	-1,	-1,	-1,	-1,	10,	-1,	28,	12,	-1,	36,	37|
-1,	-1,	13,	-1,	-1,	19,	-1,	5,	23,	24,	-1,	-1,	-1,	39,	31,	-1,	7,	35,	27,	-1,	-1,	15,	9,	-1,	6,	-1,	41,	25,	-1,	16,	22,	-1,	-1,	-1,	-1,	-1,	29,	44,	38,	-1,	28,	-1,	30,	-1,	8,	-1,	-1,	17,	-1|
30,	47,	9,	41,	1,	-1,	-1,	-1,	26,	33,	-1,	-1,	-1,	-1,	-1,	39,	-1,	-1,	28,	43,	46,	-1,	-1,	42,	12,	34,	-1,	11,	32,	23,	35,	-1,	-1,	44,	38,	-1,	-1,	-1,	27,	14,	-1,	-1,	-1,	31,	7,	-1,	21,	6,	16|
31,	-1,	36,	15,	-1,	33,	18,	-1,	37,	-1,	-1,	-1,	20,	-1,	-1,	-1,	44,	-1,	-1,	12,	21,	10,	28,	-1,	22,	-1,	-1,	-1,	6,	11,	3,	19,	-1,	24,	34,	-1,	43,	-1,	-1,	5,	16,	39,	29,	23,	-1,	-1,	41,	-1,	-1|
4,	-1,	-1,	26,	24,	-1,	-1,	-1,	-1,	-1,	-1,	-1,	-1,	13,	-1,	10,	-1,	-1,	23,	-1,	-1,	21,	-1,	-1,	29,	-1,	-1,	-1,	7,	5,	-1,	27,	49,	-1,	31,	-1,	2,	-1,	33,	25,	45,	17,	12,	22,	-1,	-1,	-1,	28,	-1|
23,	-1,	-1,	14,	-1,	-1,	40,	41,	-1,	-1,	35,	25,	2,	17,	-1,	-1,	29,	19,	3,	-1,	36,	44,	48,	32,	-1,	-1,	-1,	-1,	-1,	21,	43,	-1,	-1,	9,	18,	34,	-1,	-1,	26,	49,	-1,	42,	-1,	-1,	-1,	-1,	10,	1,	-1|
21,	32,	29,	-1,	17,	-1,	-1,	-1,	-1,	-1,	-1,	-1,	27,	28,	-1,	4,	16,	-1,	5,	-1,	25,	7,	23,	-1,	-1,	38,	49,	46,	8,	39,	-1,	-1,	26,	-1,	13,	24,	35,	19,	-1,	22,	-1,	-1,	-1,	14,	9,	-1,	-1,	2,	42|
-1,	8,	22,	6,	10,	-1,	35,	16,	12,	-1,	-1,	-1,	29,	-1,	-1,	32,	2,	38,	37,	26,	14,	-1,	36,	-1,	-1,	-1,	-1,	-1,	-1,	42,	-1,	-1,	-1,	45,	30,	-1,	-1,	-1,	46,	-1,	-1,	23,	-1,	44,	11,	33,	-1,	40,	-1|
40,	-1,	14,	22,	-1,	35,	-1,	-1,	-1,	25,	30,	45,	19,	42,	16,	-1,	5,	-1,	-1,	-1,	31,	-1,	44,	46,	-1,	-1,	17,	7,	11,	26,	36,	-1,	-1,	-1,	-1,	-1,	-1,	37,	-1,	-1,	32,	-1,	8,	-1,	38,	47,	4,	24,	-1|
-1,	23,	1,	-1,	-1,	12,	46,	-1,	-1,	-1,	2,	36,	-1,	-1,	38,	42,	-1,	13,	40,	-1,	-1,	43,	18,	15,	30,	27,	16,	-1,	44,	10,	-1,	7,	-1,	-1,	-1,	48,	31,	-1,	47,	-1,	-1,	-1,	-1,	-1,	29,	3,	-1,	-1,	-1|
28,	-1,	-1,	45,	47,	16,	26,	-1,	-1,	10,	38,	24,	-1,	-1,	46,	-1,	37,	14,	-1,	-1,	-1,	25,	42,	39,	3,	4,	48,	36,	-1,	-1,	8,	30,	-1,	-1,	-1,	41,	13,	34,	19,	20,	-1,	-1,	-1,	33,	-1,	-1,	-1,	27,	2|
-1,	13,	-1,	-1,	19,	39,	4,	-1,	-1,	-1,	-1,	14,	-1,	-1,	27,	-1,	12,	-1,	-1,	-1,	-1,	-1,	-1,	45,	-1,	-1,	1,	40,	24,	37,	-1,	-1,	-1,	-1,	6,	17,	-1,	43,	-1,	29,	-1,	35,	5,	-1,	-1,	-1,	36,	10,	-1|
-1,	11,	-1,	-1,	-1,	-1,	-1,	8,	44,	37,	39,	46,	-1,	-1,	1,	20,	45,	33,	47,	-1,	-1,	41,	29,	-1,	-1,	6,	-1,	-1,	3,	-1,	-1,	34,	-1,	-1,	17,	9,	22,	42,	-1,	-1,	36,	-1,	26,	-1,	-1,	-1,	14,	12,	-1|
-1,	38,	-1,	37,	-1,	-1,	29,	-1,	43,	-1,	-1,	23,	-1,	4,	3,	15,	-1,	2,	10,	30,	6,	32,	26,	20,	-1,	14,	-1,	8,	-1,	-1,	-1,	39,	-1,	18,	33,	44,	-1,	11,	24,	-1,	-1,	16,	-1,	1,	-1,	-1,	42,	-1,	-1|
-1,	5,	-1,	-1,	48,	-1,	27,	15,	40,	-1,	33,	-1,	-1,	1,	11,	49,	-1,	28,	7,	36,	-1,	-1,	31,	22,	-1,	-1,	-1,	-1,	45,	46,	-1,	13,	-1,	38,	25,	-1,	8,	-1,	-1,	10,	-1,	-1,	43,	-1,	-1,	39,	17,	-1,	-1|];
