sudoku-ls/benchmarks_LEQ/INST_49x49/50/inst49x49_50_1.txt
7
1
-1	-1	7	17	-1	-1	-1	-1	-1	-1	-1	-1	-1	-1	23	-1	31	8	44	-1	-1	22	14	21	-1	47	-1	49	28	29	39	-1	-1	16	11	-1	-1	26	-1	2	-1	-1	-1	15	42	-1	30	-1	-1
-1	27	6	16	-1	5	43	47	-1	28	32	10	-1	-1	37	-1	-1	-1	-1	-1	-1	-1	41	-1	17	-1	-1	-1	-1	-1	-1	9	-1	34	-1	7	42	33	-1	4	23	-1	-1	-1	-1	14	-1	29	21
-1	26	38	8	28	10	-1	-1	-1	-1	23	22	35	-1	33	-1	-1	41	19	3	7	37	-1	-1	-1	5	-1	-1	-1	-1	-1	-1	-1	-1	2	-1	-1	1	-1	-1	-1	-1	39	-1	27	17	40	46	25
34	-1	19	-1	18	11	-1	-1	13	39	20	-1	-1	5	48	-1	6	43	45	40	10	1	35	2	-1	-1	33	-1	-1	-1	7	36	-1	17	37	15	41	-1	3	47	-1	28	9	49	-1	-1	-1	-1	26
36	-1	33	44	2	21	48	37	11	-1	-1	40	7	3	14	-1	15	-1	-1	28	30	-1	4	34	-1	-1	-1	-1	-1	-1	12	46	18	8	-1	19	25	22	13	-1	29	9	-1	-1	16	-1	-1	-1	47
-1	29	-1	-1	-1	24	9	-1	16	14	-1	26	-1	-1	-1	-1	11	-1	-1	42	-1	40	39	-1	-1	-1	-1	-1	10	33	-1	-1	41	23	44	-1	-1	-1	-1	8	27	18	4	48	-1	-1	7	-1	3
-1	42	23	-1	15	1	45	33	18	17	44	29	-1	34	12	-1	-1	4	-1	-1	-1	48	-1	-1	-1	-1	-1	-1	5	30	24	6	-1	-1	-1	40	38	49	-1	-1	11	-1	37	-1	35	-1	31	19	22
-1	-1	-1	11	30	29	23	-1	28	-1	-1	38	-1	-1	5	14	-1	24	9	-1	-1	39	32	48	-1	-1	-1	47	49	-1	18	-1	-1	19	-1	20	-1	12	-1	-1	-1	-1	31	21	4	-1	-1	15	27
-1	-1	15	3	7	46	-1	23	-1	-1	26	-1	24	-1	18	-1	-1	-1	-1	49	-1	-1	-1	10	-1	-1	-1	22	-1	34	-1	47	-1	40	-1	4	44	-1	-1	27	-1	-1	32	-1	43	-1	33	-1	45
-1	-1	-1	-1	-1	45	-1	-1	6	-1	47	-1	-1	16	-1	28	-1	-1	20	-1	-1	33	37	13	-1	31	18	41	-1	-1	11	4	-1	7	-1	42	15	21	40	17	-1	22	-1	9	3	44	19	-1	-1
1	17	-1	33	9	25	38	4	39	13	7	12	-1	-1	-1	-1	48	-1	-1	29	-1	11	24	14	-1	-1	-1	6	21	-1	-1	-1	-1	-1	-1	-1	-1	-1	18	-1	8	10	36	-1	37	-1	-1	-1	23
20	-1	37	28	39	-1	-1	-1	-1	18	22	-1	-1	-1	-1	17	-1	30	43	34	40	45	-1	-1	-1	15	-1	-1	-1	-1	-1	35	6	48	36	11	-1	25	16	-1	-1	-1	2	-1	10	42	24	-1	7
-1	43	27	13	12	4	-1	10	-1	15	3	41	-1	48	-1	21	22	-1	46	-1	26	17	8	-1	42	-1	2	-1	33	1	37	29	-1	31	-1	49	-1	-1	6	-1	-1	5	-1	20	40	-1	38	-1	14
-1	2	-1	-1	-1	-1	34	-1	-1	5	21	20	11	-1	15	-1	33	10	4	47	37	12	-1	-1	36	28	-1	-1	-1	45	-1	24	-1	-1	8	43	-1	39	-1	-1	30	-1	-1	-1	41	-1	13	-1	-1
-1	9	-1	2	3	22	-1	-1	-1	-1	-1	47	-1	-1	-1	7	-1	-1	-1	16	-1	-1	-1	-1	24	20	35	-1	40	32	49	26	45	-1	43	1	-1	46	-1	-1	-1	21	-1	41	34	37	-1	8	36
-1	15	-1	43	-1	-1	-1	19	22	29	9	-1	-1	-1	-1	-1	46	44	24	-1	17	27	12	8	-1	25	-1	28	1	-1	-1	16	5	14	-1	-1	10	3	-1	38	-1	-1	-1	40	-1	-1	-1	42	-1
-1	40	-1	35	29	31	44	-1	36	-1	37	-1	-1	-1	13	-1	-1	-1	-1	48	-1	9	-1	6	-1	46	39	-1	-1	4	42	-1	-1	15	-1	25	-1	-1	23	11	19	-1	20	27	14	30	-1	-1	-1
16	24	-1	-1	-1	-1	32	45	46	-1	40	-1	-1	35	-1	2	39	3	36	-1	12	34	-1	31	-1	41	-1	-1	27	-1	-1	18	-1	25	-1	28	-1	-1	-1	-1	-1	44	7	29	-1	10	-1	-1	9
-1	-1	28	-1	23	17	37	2	-1	7	-1	-1	6	11	43	25	38	42	35	-1	-1	-1	-1	-1	-1	-1	-1	1	-1	-1	10	-1	-1	-1	41	27	-1	15	49	-1	-1	30	-1	-1	-1	32	-1	3	-1
42	-1	30	-1	46	-1	-1	17	10	34	14	-1	-1	24	-1	41	9	5	6	31	-1	-1	49	23	48	-1	-1	-1	37	-1	-1	33	-1	-1	20	-1	-1	-1	-1	-1	-1	7	-1	25	2	18	-1	16	-1
-1	-1	-1	-1	33	38	7	39	-1	41	-1	-1	42	23	29	19	-1	-1	-1	20	15	13	47	-1	44	-1	-1	-1	36	9	6	-1	-1	12	46	-1	-1	16	31	-1	2	45	21	4	24	22	43	35	1
-1	35	-1	-1	-1	13	12	21	-1	-1	-1	30	36	41	4	37	23	-1	-1	5	47	3	-1	-1	26	19	-1	39	-1	-1	-1	32	-1	46	28	14	-1	9	-1	7	-1	-1	-1	-1	-1	15	-1	-1	-1
-1	1	-1	7	-1	3	-1	-1	-1	22	-1	-1	-1	44	2	-1	14	29	42	-1	-1	-1	30	43	-1	-1	-1	18	-1	15	25	11	19	-1	-1	21	-1	-1	-1	13	-1	-1	-1	-1	39	41	-1	23	32
27	28	-1	-1	25	-1	30	-1	5	32	-1	15	39	-1	-1	-1	43	-1	16	35	48	24	-1	-1	-1	-1	11	-1	42	-1	-1	-1	-1	-1	1	22	-1	38	17	-1	-1	-1	18	-1	19	6	-1	31	49
-1	-1	-1	-1	44	-1	-1	42	35	3	34	-1	-1	-1	-1	-1	-1	32	11	-1	28	8	-1	41	-1	-1	-1	16	30	38	23	-1	-1	-1	-1	37	-1	48	-1	12	25	20	13	-1	-1	4	-1	-1	33
11	22	-1	32	6	-1	19	-1	-1	-1	10	-1	23	-1	-1	-1	-1	-1	-1	-1	20	47	34	-1	21	-1	-1	42	13	44	27	40	-1	-1	39	-1	-1	5	43	-1	-1	-1	46	-1	26	29	28	-1	38
29	36	-1	23	-1	37	-1	-1	-1	-1	-1	-1	-1	18	22	-1	34	-1	38	-1	-1	2	10	-1	-1	-1	-1	-1	47	43	-1	-1	8	6	3	16	26	4	32	-1	-1	-1	-1	7	45	11	-1	30	5
8	31	-1	-1	-1	-1	-1	38	-1	26	11	37	46	45	7	44	36	21	-1	-1	-1	29	15	27	49	-1	-1	-1	-1	48	-1	-1	20	-1	-1	-1	-1	23	41	28	-1	-1	42	-1	-1	16	35	14	10
-1	-1	-1	-1	-1	-1	6	-1	-1	4	-1	44	28	-1	26	40	24	-1	-1	7	13	-1	-1	-1	-1	-1	37	-1	16	18	-1	10	22	32	35	-1	-1	17	-1	-1	14	47	41	-1	33	-1	-1	-1	-1
-1	-1	-1	-1	-1	23	33	25	-1	-1	46	-1	41	30	-1	-1	28	22	-1	-1	-1	-1	27	-1	-1	-1	-1	-1	-1	-1	-1	-1	-1	-1	-1	18	21	-1	-1	16	-1	-1	-1	13	6	24	-1	48	31
9	18	12	36	-1	15	-1	-1	42	2	-1	43	37	-1	-1	-1	-1	-1	-1	27	33	-1	22	29	-1	-1	-1	26	-1	28	45	-1	-1	-1	47	38	23	-1	20	-1	35	-1	14	-1	17	21	-1	49	-1
39	49	-1	-1	13	32	-1	22	48	40	27	35	9	29	36	-1	19	37	-1	45	-1	6	7	-1	-1	-1	-1	20	25	17	-1	23	14	41	24	-1	-1	2	11	-1	44	8	-1	38	18	43	-1	47	-1
24	-1	31	-1	-1	47	-1	-1	-1	23	1	-1	-1	36	-1	-1	-1	-1	21	-1	-1	14	-1	38	-1	-1	32	48	39	-1	-1	3	-1	13	19	-1	37	-1	15	-1	-1	-1	35	-1	20	-1	-1	7	-1
-1	30	-1	48	-1	20	1	-1	8	12	18	17	31	-1	47	-1	4	16	14	32	11	42	43	-1	39	-1	25	24	-1	6	33	38	-1	49	29	3	36	28	-1	-1	22	13	-1	-1	-1	40	26	45	46
-1	-1	-1	29	-1	-1	-1	-1	-1	47	5	11	-1	-1	-1	-1	-1	-1	30	38	-1	-1	-1	-1	-1	13	9	33	-1	-1	4	-1	44	43	42	-1	-1	31	-1	-1	-1	-1	-1	-1	-1	-1	22	-1	-1
-1	-1	-1	12	-1	19	-1	5	-1	24	-1	-1	49	39	-1	-1	7	35	-1	1	-1	15	-1	-1	-1	43	-1	-1	-1	-1	22	2	33	-1	4	10	29	-1	38	-1	-1	-1	-1	-1	8	26	45	-1	-1
30	47	-1	-1	1	49	-1	-1	26	-1	-1	-1	10	-1	20	39	17	-1	-1	43	-1	-1	45	-1	-1	34	24	11	-1	-1	35	25	29	44	-1	-1	-1	-1	27	14	15	-1	3	31	-1	19	21	6	16
31	25	-1	-1	27	-1	-1	1	37	-1	-1	-1	-1	-1	49	13	-1	-1	-1	-1	21	-1	28	26	-1	-1	-1	17	6	-1	3	19	-1	-1	34	30	-1	-1	-1	-1	16	39	-1	-1	-1	38	41	-1	35
4	46	-1	-1	-1	44	-1	40	-1	-1	6	-1	34	13	9	10	-1	15	23	8	41	21	20	35	29	-1	-1	14	7	5	1	27	-1	-1	31	-1	-1	18	-1	25	45	17	-1	22	47	-1	37	-1	43
23	-1	-1	14	38	7	-1	-1	-1	46	35	25	2	17	6	11	29	-1	-1	22	-1	-1	-1	32	-1	30	-1	4	-1	21	43	37	-1	9	18	-1	-1	8	-1	49	-1	42	-1	24	-1	-1	10	1	39
-1	32	-1	34	-1	-1	20	11	47	44	31	-1	27	28	-1	-1	16	45	5	33	-1	-1	-1	-1	1	38	-1	-1	8	39	40	41	26	10	-1	24	35	-1	48	-1	-1	12	-1	-1	-1	36	-1	2	-1
5	8	-1	-1	10	28	-1	16	-1	9	-1	21	-1	-1	-1	32	-1	38	-1	26	-1	31	-1	-1	-1	-1	27	-1	-1	42	-1	17	-1	45	-1	-1	1	7	46	-1	3	23	-1	44	-1	33	49	40	-1
40	-1	14	-1	20	-1	41	3	-1	-1	-1	-1	-1	42	16	48	-1	-1	-1	9	-1	-1	-1	-1	10	-1	17	7	11	-1	-1	-1	-1	2	49	-1	-1	-1	-1	1	-1	-1	-1	34	-1	-1	4	-1	13
-1	-1	-1	49	8	-1	-1	-1	-1	11	-1	36	-1	6	38	42	26	-1	40	-1	-1	43	-1	15	-1	-1	16	34	44	10	14	-1	21	4	-1	48	31	45	47	-1	33	-1	-1	35	29	3	-1	-1	19
-1	6	-1	-1	-1	16	26	35	7	-1	-1	-1	18	9	46	-1	37	-1	-1	-1	32	-1	-1	-1	3	4	48	36	29	12	-1	-1	-1	-1	15	-1	-1	34	19	20	-1	-1	-1	-1	-1	49	-1	27	-1
15	-1	-1	-1	19	39	4	28	31	49	41	14	-1	26	27	-1	-1	34	-1	-1	-1	38	-1	45	47	-1	1	40	-1	-1	-1	42	16	20	-1	-1	3	-1	2	29	7	-1	-1	-1	30	46	-1	-1	18
10	-1	-1	31	-1	-1	25	8	44	-1	-1	46	13	-1	-1	-1	45	33	-1	19	4	-1	29	-1	-1	6	-1	21	-1	-1	5	34	-1	35	17	9	-1	-1	28	18	36	-1	-1	16	48	7	14	12	15
7	-1	-1	-1	36	34	29	27	-1	-1	48	-1	-1	-1	3	-1	35	2	10	-1	6	32	-1	20	-1	-1	5	8	-1	-1	-1	-1	-1	18	-1	44	-1	11	24	-1	-1	16	22	1	31	-1	42	-1	40
-1	-1	-1	-1	-1	18	27	15	40	-1	-1	-1	12	-1	11	49	21	-1	7	-1	-1	35	31	22	37	24	19	-1	-1	46	47	13	32	38	-1	-1	8	14	-1	-1	-1	-1	43	6	-1	-1	17	20	-1
49 
22 24 25 16
35 44 45 49
21 24 2 28
26 27 4 2
28 28 15 39
3 23 42 4
41 22 8 27
24 16 4 47
13 40 7 26
22 33 38 22
13 20 3 25
38 20 42 9
9 38 3 31
27 32 48 26
15 13 3 14
31 22 26 12
26 19 25 13
22 4 26 37
20 22 41 38
3 30 35 18
19 23 20 13
8 1 22 27
12 29 35 22
27 43 44 21
2 33 48 48
12 27 7 34
43 37 1 14
45 1 6 24
41 3 20 36
36 43 45 32
5 40 19 29
13 35 6 31
26 14 32 37
19 21 6 19
2 39 8 10
43 31 37 38
18 40 47 10
17 29 20 43
2 20 7 39
36 24 33 40
40 8 31 25
47 38 45 23
25 3 46 38
19 47 34 24
20 27 8 40
29 36 14 29
47 19 45 5
16 35 10 43
6 5 29 8
